<number of tasks>
29

<cycle time>
36

<task times>
1 7
2 19
3 15
4 5
5 12
6 10
7 8
8 16
9 2
10 6
11 21
12 10
13 9
14 4
15 14
16 7
17 14
18 17
19 10
20 16
21 1
22 9
23 25
24 14
25 14
26 2
27 10
28 7
29 20

<task process alternatives>
1: 6,15 ; 9,8
2: 16,15 ; 23,8
3: 12,15 ; 18,8
4: 4,15 ; 6,8
5: 10,15 ; 15,8
6: 8,15 ; 12,8
7: 7,15 ; 10,8
8: 13,15 ; 20,8
9: 2,15 ; 3,8
10: 5,15 ; 8,8
11: 17,15 ; 26,8
12: 8,15 ; 12,8
13: 8,15 ; 11,8
14: 4,15 ; 5,8
15: 12,15 ; 17,8
16: 6,15 ; 9,8
17: 12,15 ; 17,8
18: 14,15 ; 21,8
19: 8,15 ; 12,8
20: 13,15 ; 20,8
21: 1,15 ; 2,8
22: 8,15 ; 11,8
23: 20,15 ; 30,8
24: 12,15 ; 17,8
25: 12,15 ; 17,8
26: 2,15 ; 3,8
27: 8,15 ; 12,8
28: 6,15 ; 9,8
29: 16,15 ; 24,8

<incompatible tasks>
15,26
29,4
8,11
7,14

<precedence relations>
25,29
3,4
26,27
20,23
21,22
14,16
5,13
22,23
23,28
1,3
19,21
11,17
10,15
13,17
2,26
6,8
24,29
4,5
18,22
7,25
12,15
23,24
8,11
9,10
17,20
10,14
28,29
7,9
7,12
15,19
16,18
5,8
8,16
2,6
27,29
1,25

<number of task attributes>
3

<task attribute values>
1,1:70
1,2:85
1,3:72
2,1:6
2,2:14
2,3:17
3,2:59
3,3:92
4,1:69
4,2:68
4,3:32
5,1:91
5,2:88
5,3:37
6,1:7
6,2:11
6,3:48
7,1:1
8,1:80
8,2:21
8,3:36
9,1:11
10,1:92
10,2:21
10,3:1
11,1:75
11,2:71
11,3:29
12,1:7
12,2:1
12,3:43
13,1:16
13,2:42
13,3:41
14,1:2
14,2:21
14,3:33
15,1:1
15,3:1
16,1:12
16,2:1
16,3:12
17,1:83
17,2:1
17,3:84
18,1:16
18,2:18
18,3:15
19,1:51
19,2:57
19,3:69
20,1:17
20,2:1
20,3:8
21,1:1
21,2:26
21,3:1
22,1:9
22,3:5
23,1:32
23,2:21
23,3:71
24,1:99
24,2:92
24,3:25
25,1:6
25,2:12
26,1:10
26,2:4
26,3:8
27,2:16
27,3:17
28,1:50
28,2:71
28,3:11
29,2:4
29,3:47

<attribute bounds per station>
1:100
2:100
3:100

<linked tasks>
3,25
5,15
20,21

<incompatible tasks>
1,6
1,17
2,10
2,24
3,24
3,29
4,17
4,21
5,14
6,7
6,11
6,18
6,19
7,18
7,19
8,19
9,11
9,25
10,28
11,19
11,28
12,14
12,16
12,17
13,16
14,18
14,29
15,21
15,29
16,19
16,23
18,19
18,23
19,23
21,29
22,29
26,27

<optimal SALBP-1 value>
10

<rand seed>
236278236

<end>
